data/solutions/planning/wellformed/hard/weighting/wellformed_hard_instance60_gurobi.sol
Elapsed time: 1000.31
Nodes explored: 684704
Nodes left: 232892
Relative gap: 2.992
Upper bound: 1.54963953911e+11
Lower bound: 150326857214
C[0]=148046.0
C[1]=148035.0
C[2]=147563.0
C[3]=146800.0
C[4]=146587.0
C[5]=146230.0
C[6]=145656.0
C[7]=145462.0
C[8]=143920.0
C[9]=143747.0
C[10]=143679.0
C[11]=143486.0
C[12]=142737.0
C[13]=141605.0
C[14]=141516.0
C[15]=140588.0
C[16]=140360.0
C[17]=139348.0
C[18]=137561.0
C[19]=134325.0
y[0]=9
y[1]=2
y[2]=14
y[3]=3
y[4]=3
y[5]=19
y[6]=10
y[7]=15
y[8]=0
y[9]=9
y[10]=1
y[11]=17
y[12]=9
y[13]=5
y[14]=11
y[15]=1
y[16]=11
y[17]=0
y[18]=1
y[19]=14
y[20]=1
y[21]=2
y[22]=9
y[23]=16
y[24]=2
y[25]=8
y[26]=11
y[27]=0
y[28]=1
y[29]=1
y[30]=1
y[31]=1
y[32]=17
y[33]=19
y[34]=1
y[35]=7
y[36]=17
y[37]=11
y[38]=1
y[39]=6
y[40]=1
y[41]=5
y[42]=0
y[43]=2
y[44]=15
y[45]=10
y[46]=4
y[47]=12
y[48]=1
y[49]=3
y[50]=11
y[51]=12
y[52]=14
y[53]=16
y[54]=10
y[55]=3
y[56]=15
y[57]=18
y[58]=2
y[59]=18
y[60]=13
y[61]=18
y[62]=15
y[63]=2
y[64]=1
y[65]=19
y[66]=17
y[67]=0
y[68]=9
y[69]=18
y[70]=4
y[71]=9
y[72]=17
y[73]=13
y[74]=19
y[75]=8
y[76]=11
y[77]=11
y[78]=19
y[79]=6
y[80]=19
y[81]=19
y[82]=1
y[83]=18
y[84]=19
y[85]=4
y[86]=17
y[87]=7
y[88]=12
y[89]=7
y[90]=14
y[91]=17
y[92]=1
y[93]=1
y[94]=4
y[95]=15
y[96]=15
y[97]=16
y[98]=17
y[99]=0
y[100]=12
y[101]=3
y[102]=13
y[103]=10
y[104]=18
y[105]=12
y[106]=13
y[107]=5
y[108]=1
y[109]=6
y[110]=14
y[111]=5
y[112]=3
y[113]=13
y[114]=18
y[115]=2
y[116]=12
y[117]=8
y[118]=10
y[119]=3
y[120]=18
y[121]=10
y[122]=1
y[123]=19
y[124]=1
y[125]=14
y[126]=14
y[127]=18
y[128]=8
y[129]=6
y[130]=4
y[131]=14
y[132]=16
y[133]=16
y[134]=7
y[135]=5
y[136]=1
y[137]=17
y[138]=11
y[139]=9
y[140]=19
y[141]=6
y[142]=3
y[143]=9
y[144]=16
y[145]=6
y[146]=2
y[147]=7
y[148]=2
y[149]=7
y[150]=17
y[151]=1
y[152]=9
y[153]=2
y[154]=13
y[155]=1
y[156]=10
y[157]=6
y[158]=1
y[159]=10
y[160]=0
y[161]=18
y[162]=11
y[163]=4
y[164]=14
y[165]=4
y[166]=7
y[167]=13
y[168]=12
y[169]=12
y[170]=12
y[171]=17
y[172]=14
y[173]=1
y[174]=1
y[175]=12
y[176]=4
y[177]=1
y[178]=1
y[179]=15
y[180]=15
y[181]=10
y[182]=17
y[183]=13
y[184]=18
y[185]=10
y[186]=18
y[187]=1
y[188]=15
y[189]=2
y[190]=17
y[191]=19
y[192]=4
y[193]=1
y[194]=10
y[195]=8
y[196]=19
y[197]=11
y[198]=16
y[199]=7
y[200]=17
y[201]=11
y[202]=5
y[203]=1
y[204]=16
y[205]=14
y[206]=1
y[207]=9
y[208]=10
y[209]=18
y[210]=18
y[211]=16
y[212]=0
y[213]=17
y[214]=8
y[215]=18
y[216]=19
y[217]=2
y[218]=1
y[219]=3
y[220]=7
y[221]=6
y[222]=18
y[223]=13
y[224]=5
y[225]=12
y[226]=1
y[227]=0
y[228]=13
y[229]=19
y[230]=15
y[231]=3
y[232]=4
y[233]=15
y[234]=10
y[235]=12
y[236]=1
y[237]=15
y[238]=7
y[239]=15
y[240]=8
y[241]=18
y[242]=6
y[243]=19
y[244]=19
y[245]=13
y[246]=8
y[247]=3
y[248]=16
y[249]=5
y[250]=7
y[251]=7
y[252]=16
y[253]=1
y[254]=14
y[255]=9
y[256]=1
y[257]=11
y[258]=14
y[259]=16
y[260]=8
y[261]=1
y[262]=5
y[263]=8
y[264]=8
y[265]=1
y[266]=16
y[267]=3
y[268]=0
y[269]=3
y[270]=19
y[271]=5
y[272]=0
y[273]=1
y[274]=18
y[275]=9
y[276]=1
y[277]=19
y[278]=1
y[279]=1
y[280]=17
y[281]=1
y[282]=18
y[283]=19
y[284]=8
y[285]=15
y[286]=1
y[287]=11
y[288]=4
y[289]=6
y[290]=6
y[291]=15
y[292]=0
y[293]=6
y[294]=16
y[295]=9
y[296]=5
y[297]=12
y[298]=6
y[299]=7
