data/solutions/planning/wellformed/hard/weighting/wellformed_hard_instance60_gurobi.log

Gurobi 6.5.2 (linux64) logging started Sun Mar  4 05:01:29 2018

Changed value of parameter LogFile to data/solutions/planning/wellformed/hard/weighting/wellformed_hard_instance60_gurobi.log
   Prev: gurobi.log  Default: 
Changed value of parameter Threads to 1
   Prev: 0  Min: 0  Max: 1024  Default: 0
Optimize a model with 340 rows, 6021 columns and 12059 nonzeros
Coefficient statistics:
  Matrix range    [1e+00, 2e+04]
  Objective range [1e+00, 5e+05]
  Bounds range    [1e+00, 1e+00]
  RHS range       [1e+00, 1e+00]
Presolve removed 3 rows and 3 columns
Presolve time: 0.02s
Presolved: 337 rows, 6018 columns, 12054 nonzeros
Variable types: 0 continuous, 6018 integer (6000 binary)
Found heuristic solution: objective 1.503265e+12

Root relaxation: objective 1.503264e+11, 592 iterations, 0.01 seconds

    Nodes    |    Current Node    |     Objective Bounds      |     Work
 Expl Unexpl |  Obj  Depth IntInf | Incumbent    BestBd   Gap | It/Node Time

     0     0 1.5033e+11    0   46 1.5033e+12 1.5033e+11  90.0%     -    0s
H    0     0                    2.219575e+11 1.5033e+11  32.3%     -    0s
     0     0 1.5033e+11    0   64 2.2196e+11 1.5033e+11  32.3%     -    0s
     0     0 1.5033e+11    0   59 2.2196e+11 1.5033e+11  32.3%     -    0s
     0     0 1.5033e+11    0   73 2.2196e+11 1.5033e+11  32.3%     -    0s
     0     0 1.5033e+11    0   51 2.2196e+11 1.5033e+11  32.3%     -    0s
     0     2 1.5033e+11    0   49 2.2196e+11 1.5033e+11  32.3%     -    0s
  1420  1401 1.5033e+11   24   34 2.2196e+11 1.5033e+11  32.3%  16.5    5s
H 1771  1563                    2.164099e+11 1.5033e+11  30.5%  17.4    7s
  2635  2123 1.5033e+11  732   32 2.1641e+11 1.5033e+11  30.5%  14.2   10s
H 2662  2065                    1.980267e+11 1.5033e+11  24.1%  14.1   10s
H 2836  2077                    1.628425e+11 1.5033e+11  7.69%  13.8   10s
H 3001  2127                    1.628144e+11 1.5033e+11  7.67%  13.3   11s
  4762  3113 1.5034e+11  494   28 1.6281e+11 1.5033e+11  7.67%  10.8   15s
  8327  6454 1.5033e+11  627   31 1.6281e+11 1.5033e+11  7.67%   9.3   20s
 10203  8175 1.5033e+11  521   51 1.6281e+11 1.5033e+11  7.67%   8.6   28s
 10215  8183 1.5034e+11  540   69 1.6281e+11 1.5033e+11  7.67%   8.6   30s
H10382  7815                    1.580587e+11 1.5033e+11  4.89%   9.3   33s
H10436  7462                    1.580576e+11 1.5033e+11  4.89%   9.3   33s
H10490  7124                    1.579439e+11 1.5033e+11  4.82%   9.2   33s
H10571  6827                    1.579439e+11 1.5033e+11  4.82%   9.2   34s
H10679  6563                    1.578499e+11 1.5033e+11  4.77%   9.1   34s
 10733  6601 1.5038e+11  415   27 1.5785e+11 1.5033e+11  4.77%   9.1   35s
 12774  7880 1.5033e+11  308   33 1.5785e+11 1.5033e+11  4.77%   8.7   40s
H14361  8534                    1.577240e+11 1.5033e+11  4.69%   8.6   42s
 16166  9665 1.5033e+11  447   25 1.5772e+11 1.5033e+11  4.69%   8.2   45s
H17174  9890                    1.575079e+11 1.5033e+11  4.56%   8.3   47s
H18292 10307                    1.574328e+11 1.5033e+11  4.51%   8.2   48s
H18626 10218                    1.573993e+11 1.5033e+11  4.49%   8.1   49s
 19013 10478 1.5053e+11  460   30 1.5740e+11 1.5033e+11  4.49%   8.0   50s
H19391 10457                    1.569418e+11 1.5033e+11  4.21%   8.1   50s
H20094 10660                    1.569074e+11 1.5033e+11  4.19%   8.0   51s
 22955 12307 1.5034e+11  511   33 1.5691e+11 1.5033e+11  4.19%   7.8   55s
 27850 16638 infeasible 1696      1.5691e+11 1.5033e+11  4.19%   7.4   60s
 31211 19721 1.5033e+11  324   30 1.5691e+11 1.5033e+11  4.19%   7.5   65s
H31759 20228                    1.564023e+11 1.5033e+11  3.88%   7.4   65s
 34426 22818 1.5033e+11 1659   33 1.5640e+11 1.5033e+11  3.88%   7.4   70s
H37337 25613                    1.564021e+11 1.5033e+11  3.88%   7.4   74s
 37886 26117 1.5033e+11  831   32 1.5640e+11 1.5033e+11  3.88%   7.4   75s
 41817 29931 1.5034e+11  700   30 1.5640e+11 1.5033e+11  3.88%   7.4   80s
 45655 33700 1.5033e+11  612   25 1.5640e+11 1.5033e+11  3.88%   7.6   85s
 48201 35629 1.5033e+11 1177   33 1.5640e+11 1.5033e+11  3.88%   7.7   90s
H49697 37082                    1.563937e+11 1.5033e+11  3.88%   7.7   91s
 51642 38976 1.5034e+11  746   32 1.5639e+11 1.5033e+11  3.88%   7.7   95s
 55226 42424 1.5033e+11  633   30 1.5639e+11 1.5033e+11  3.88%   7.7  100s
 58165 45259 1.5033e+11 1141   32 1.5639e+11 1.5033e+11  3.88%   7.8  105s
 61716 48594 1.5034e+11  406   29 1.5639e+11 1.5033e+11  3.88%   7.8  110s
H62056 48928                    1.563921e+11 1.5033e+11  3.88%   7.8  110s
H62058 48929                    1.563640e+11 1.5033e+11  3.86%   7.8  111s
 65293 52089 1.5033e+11  951   33 1.5636e+11 1.5033e+11  3.86%   7.8  115s
 69042 55703 1.5034e+11 1073   29 1.5636e+11 1.5033e+11  3.86%   7.9  120s
 73566 60109 1.5034e+11 1377   33 1.5636e+11 1.5033e+11  3.86%   7.9  125s
H74417 60859                    1.562903e+11 1.5033e+11  3.82%   7.9  126s
 77534 63911 1.5034e+11 1362   32 1.5629e+11 1.5033e+11  3.82%   7.9  130s
 80813 66775 1.5034e+11  862   26 1.5629e+11 1.5033e+11  3.82%   7.9  135s
 84521 70191 1.5033e+11  627   27 1.5629e+11 1.5033e+11  3.82%   7.9  140s
H86776 72377                    1.560961e+11 1.5033e+11  3.70%   7.9  143s
 87866 73355 1.5034e+11  849   29 1.5610e+11 1.5033e+11  3.70%   7.9  145s
 91443 76826 1.5034e+11  452   27 1.5610e+11 1.5033e+11  3.70%   7.9  150s
 95416 80672 1.5034e+11 1435   33 1.5610e+11 1.5033e+11  3.70%   7.9  155s
 99089 84200 1.5033e+11  711   29 1.5610e+11 1.5033e+11  3.70%   7.9  160s
 102287 86734 1.5033e+11  967   33 1.5610e+11 1.5033e+11  3.70%   7.9  165s
H103689 88030                    1.560603e+11 1.5033e+11  3.67%   7.9  166s
 106135 90380 1.5033e+11  856   27 1.5606e+11 1.5033e+11  3.67%   7.9  170s
 109234 91538 1.5033e+11  811   24 1.5606e+11 1.5033e+11  3.67%   7.8  175s
 111644 91538 1.5033e+11  806   22 1.5606e+11 1.5033e+11  3.67%   7.8  180s
 114837 92265 1.5033e+11  863   20 1.5606e+11 1.5033e+11  3.67%   7.7  185s
H116057 92340                    1.560079e+11 1.5033e+11  3.64%   7.8  187s
 117326 92332 infeasible  893      1.5601e+11 1.5033e+11  3.64%   7.8  190s
H119329 92551                    1.558889e+11 1.5033e+11  3.57%   7.9  193s
 119893 92498 1.5033e+11  878   19 1.5589e+11 1.5033e+11  3.57%   7.9  195s
 122476 92497 1.5033e+11  902   23 1.5589e+11 1.5033e+11  3.57%   7.9  200s
 125414 92268 1.5033e+11  853   23 1.5589e+11 1.5033e+11  3.57%   7.9  205s
 128725 92398 1.5033e+11  897   23 1.5589e+11 1.5033e+11  3.57%   7.9  210s
 130723 91988 1.5033e+11  851   23 1.5589e+11 1.5033e+11  3.57%   7.9  215s
H131700 91920                    1.558888e+11 1.5033e+11  3.57%   7.9  217s
 132708 91862 1.5033e+11  875   24 1.5589e+11 1.5033e+11  3.57%   7.9  220s
 134952 91913 1.5033e+11  852   23 1.5589e+11 1.5033e+11  3.57%   7.9  225s
 137208 92000 1.5033e+11  853   25 1.5589e+11 1.5033e+11  3.57%   7.9  230s
 139200 91962 infeasible  841      1.5589e+11 1.5033e+11  3.57%   7.8  235s
 141685 92085 1.5033e+11  845   25 1.5589e+11 1.5033e+11  3.57%   7.8  240s
H144059 92092                    1.555592e+11 1.5033e+11  3.36%   7.8  244s
 144084 92111 1.5033e+11  837   28 1.5556e+11 1.5033e+11  3.36%   7.8  245s
H145565 92216                    1.555485e+11 1.5033e+11  3.36%   7.7  248s
 146493 92426 1.5033e+11  824   23 1.5555e+11 1.5033e+11  3.36%   7.7  250s
 150048 92609 1.5033e+11  845   25 1.5555e+11 1.5033e+11  3.36%   7.7  255s
 153298 93156 1.5033e+11  506   27 1.5555e+11 1.5033e+11  3.36%   7.7  260s
 155649 95339 1.5033e+11 1182   31 1.5555e+11 1.5033e+11  3.36%   7.7  265s
H155894 95554                    1.555485e+11 1.5033e+11  3.36%   7.7  265s
H156973 96431                    1.555429e+11 1.5033e+11  3.35%   7.7  267s
H157530 96784                    1.555178e+11 1.5033e+11  3.34%   7.7  268s
 158140 97122 1.5033e+11  853   28 1.5552e+11 1.5033e+11  3.34%   7.7  270s
 160849 99101 1.5033e+11  946   32 1.5552e+11 1.5033e+11  3.34%   7.7  275s
 163751 101138 1.5033e+11 1024   28 1.5552e+11 1.5033e+11  3.34%   7.7  280s
 166754 102002 1.5033e+11 1038   29 1.5552e+11 1.5033e+11  3.34%   7.7  285s
 169652 103589 1.5033e+11  976   29 1.5552e+11 1.5033e+11  3.34%   7.7  290s
H169890 103782                    1.554934e+11 1.5033e+11  3.32%   7.7  290s
 173107 105067 infeasible 1052      1.5549e+11 1.5033e+11  3.32%   7.7  295s
 177481 106797 infeasible 1027      1.5549e+11 1.5033e+11  3.32%   7.6  300s
H182249 109894                    1.554168e+11 1.5033e+11  3.28%   7.5  304s
 182499 110067 1.5033e+11 1002   31 1.5542e+11 1.5033e+11  3.28%   7.5  305s
 188042 113893 1.5033e+11 1053   29 1.5542e+11 1.5033e+11  3.28%   7.4  310s
H190798 115006                    1.554094e+11 1.5033e+11  3.27%   7.4  312s
 192516 115145 1.5033e+11 1036   25 1.5541e+11 1.5033e+11  3.27%   7.5  315s
 196578 115492 1.5033e+11 1014   21 1.5541e+11 1.5033e+11  3.27%   7.5  320s
 199924 115541 infeasible 1080      1.5541e+11 1.5033e+11  3.27%   7.5  325s
H203158 116002                    1.554094e+11 1.5033e+11  3.27%   7.5  328s
 203561 116201 1.5033e+11  904   25 1.5541e+11 1.5033e+11  3.27%   7.5  330s
 207697 117245 infeasible  944      1.5541e+11 1.5033e+11  3.27%   7.4  335s
 211524 117915 1.5033e+11  944   24 1.5541e+11 1.5033e+11  3.27%   7.4  340s
 215279 118289 1.5033e+11  938   26 1.5541e+11 1.5033e+11  3.27%   7.4  345s
 218542 118579 1.5033e+11  937   27 1.5541e+11 1.5033e+11  3.27%   7.4  350s
 221779 118723 1.5033e+11  927   26 1.5541e+11 1.5033e+11  3.27%   7.4  355s
 225003 118840 infeasible  942      1.5541e+11 1.5033e+11  3.27%   7.4  360s
 228033 118925 1.5033e+11  952   25 1.5541e+11 1.5033e+11  3.27%   7.5  365s
 231459 119106 1.5033e+11  948   25 1.5541e+11 1.5033e+11  3.27%   7.5  370s
 235002 119587 1.5033e+11  953   23 1.5541e+11 1.5033e+11  3.27%   7.5  375s
 238085 119698 1.5033e+11  925   24 1.5541e+11 1.5033e+11  3.27%   7.5  380s
 241357 119962 1.5033e+11  950   26 1.5541e+11 1.5033e+11  3.27%   7.5  385s
 244637 120014 infeasible  934      1.5541e+11 1.5033e+11  3.27%   7.5  390s
 248507 120402 infeasible  928      1.5541e+11 1.5033e+11  3.27%   7.5  395s
 252577 121247 1.5033e+11  925   25 1.5541e+11 1.5033e+11  3.27%   7.4  400s
 256801 122432 1.5033e+11  929   25 1.5541e+11 1.5033e+11  3.27%   7.4  405s
 261892 123559 1.5033e+11  950   29 1.5541e+11 1.5033e+11  3.27%   7.4  410s
 266154 124310 1.5033e+11  934   26 1.5541e+11 1.5033e+11  3.27%   7.3  415s
 270500 125123 1.5033e+11  938   26 1.5541e+11 1.5033e+11  3.27%   7.3  420s
 273932 125930 1.5033e+11  942   26 1.5541e+11 1.5033e+11  3.27%   7.3  425s
 277517 126566 1.5033e+11  972   26 1.5541e+11 1.5033e+11  3.27%   7.3  430s
 282223 127053 infeasible  946      1.5541e+11 1.5033e+11  3.27%   7.3  435s
 285821 127701 1.5033e+11  943   25 1.5541e+11 1.5033e+11  3.27%   7.3  440s
 289642 128270 1.5033e+11  914   26 1.5541e+11 1.5033e+11  3.27%   7.2  445s
 294295 129190 1.5033e+11  936   27 1.5541e+11 1.5033e+11  3.27%   7.2  450s
 297821 129687 infeasible  971      1.5541e+11 1.5033e+11  3.27%   7.2  455s
 301560 130320 1.5033e+11  954   24 1.5541e+11 1.5033e+11  3.27%   7.2  460s
 305453 130683 infeasible  911      1.5541e+11 1.5033e+11  3.27%   7.2  465s
 309334 131757 1.5033e+11  893   30 1.5541e+11 1.5033e+11  3.27%   7.2  470s
 311622 133510 1.5033e+11  878   31 1.5541e+11 1.5033e+11  3.27%   7.2  475s
 313946 135442 1.5033e+11  988   32 1.5541e+11 1.5033e+11  3.27%   7.2  480s
 316511 137684 1.5033e+11  713   27 1.5541e+11 1.5033e+11  3.27%   7.2  485s
 321272 139855 1.5033e+11  761   24 1.5541e+11 1.5033e+11  3.27%   7.1  490s
 323518 140763 1.5033e+11 1076   31 1.5541e+11 1.5033e+11  3.27%   7.1  495s
 325921 143068 1.5033e+11 1041   28 1.5541e+11 1.5033e+11  3.27%   7.1  500s
 329176 145983 1.5033e+11  643   29 1.5541e+11 1.5033e+11  3.27%   7.1  505s
 332613 148946 1.5033e+11  756   29 1.5541e+11 1.5033e+11  3.27%   7.1  510s
 336026 152095 1.5033e+11  514   26 1.5541e+11 1.5033e+11  3.27%   7.2  515s
 339174 155051 infeasible 1123      1.5541e+11 1.5033e+11  3.27%   7.2  520s
 342513 158140 1.5033e+11  583   29 1.5541e+11 1.5033e+11  3.27%   7.2  525s
 346191 161469 1.5033e+11  500   25 1.5541e+11 1.5033e+11  3.27%   7.2  530s
 349355 164355 1.5033e+11  946   28 1.5541e+11 1.5033e+11  3.27%   7.2  535s
 353884 168124 1.5033e+11  793   25 1.5541e+11 1.5033e+11  3.27%   7.2  540s
 358784 172034 1.5033e+11  797   27 1.5541e+11 1.5033e+11  3.27%   7.1  545s
 363537 175802 1.5033e+11  910   25 1.5541e+11 1.5033e+11  3.27%   7.1  550s
 368908 179812 1.5033e+11 1063   22 1.5541e+11 1.5033e+11  3.27%   7.1  555s
 374817 181691 1.5033e+11 1095   23 1.5541e+11 1.5033e+11  3.27%   7.1  560s
 380051 182279 1.5033e+11 1097   20 1.5541e+11 1.5033e+11  3.27%   7.1  565s
 385381 183998 1.5033e+11 1109   21 1.5541e+11 1.5033e+11  3.27%   7.0  570s
 391014 185253 1.5033e+11 1105   21 1.5541e+11 1.5033e+11  3.27%   7.0  575s
 396693 186997 1.5033e+11 1067   21 1.5541e+11 1.5033e+11  3.27%   7.0  580s
 401258 188099 infeasible 1090      1.5541e+11 1.5033e+11  3.27%   7.0  585s
 404807 188693 1.5033e+11 1079   22 1.5541e+11 1.5033e+11  3.27%   7.0  590s
 409555 190318 infeasible 1072      1.5541e+11 1.5033e+11  3.27%   7.0  595s
 414350 191167 1.5033e+11 1068   21 1.5541e+11 1.5033e+11  3.27%   7.0  600s
 418684 191828 1.5033e+11 1061   20 1.5541e+11 1.5033e+11  3.27%   7.0  605s
 423615 192940 1.5033e+11 1058   25 1.5541e+11 1.5033e+11  3.27%   7.0  610s
 428251 193684 1.5033e+11 1066   20 1.5541e+11 1.5033e+11  3.27%   7.0  615s
 433202 194909 1.5033e+11 1078   20 1.5541e+11 1.5033e+11  3.27%   7.0  620s
H437453 195632                    1.554011e+11 1.5033e+11  3.27%   7.0  624s
 437670 195667 1.5033e+11 1072   21 1.5540e+11 1.5033e+11  3.27%   7.0  625s
 442395 196306 infeasible 1070      1.5540e+11 1.5033e+11  3.27%   7.0  630s
 446469 196952 1.5033e+11 1064   18 1.5540e+11 1.5033e+11  3.27%   7.0  635s
 451496 198033 1.5033e+11 1061   19 1.5540e+11 1.5033e+11  3.27%   7.0  640s
 456220 199011 1.5033e+11 1050   20 1.5540e+11 1.5033e+11  3.27%   7.0  645s
 461342 200192 1.5033e+11 1054   20 1.5540e+11 1.5033e+11  3.27%   7.0  650s
 466082 201003 infeasible 1056      1.5540e+11 1.5033e+11  3.27%   7.0  655s
 470141 201682 1.5033e+11 1039   21 1.5540e+11 1.5033e+11  3.27%   7.0  660s
 474922 202463 infeasible 1044      1.5540e+11 1.5033e+11  3.27%   6.9  665s
 479527 204474 1.5033e+11 1009   20 1.5540e+11 1.5033e+11  3.27%   6.9  670s
 482720 205130 1.5033e+11  998   20 1.5540e+11 1.5033e+11  3.27%   7.0  675s
 486746 205708 1.5033e+11 1044   22 1.5540e+11 1.5033e+11  3.27%   7.0  680s
 490343 206262 1.5033e+11 1006   20 1.5540e+11 1.5033e+11  3.27%   7.0  685s
 494215 207087 1.5033e+11 1064   22 1.5540e+11 1.5033e+11  3.27%   7.0  690s
 498202 207613 1.5033e+11 1028   21 1.5540e+11 1.5033e+11  3.27%   7.0  695s
 502987 208275 infeasible 1018      1.5540e+11 1.5033e+11  3.27%   7.0  700s
 506792 208818 infeasible 1022      1.5540e+11 1.5033e+11  3.27%   7.0  705s
 510233 209440 1.5033e+11 1002   20 1.5540e+11 1.5033e+11  3.27%   7.0  710s
 513048 209695 infeasible 1029      1.5540e+11 1.5033e+11  3.27%   7.0  715s
 516835 209852 infeasible 1007      1.5540e+11 1.5033e+11  3.27%   7.1  720s
H516910 209846                    1.554000e+11 1.5033e+11  3.26%   7.1  720s
H520300 210498                    1.553787e+11 1.5033e+11  3.25%   7.1  724s
 520405 210513 1.5033e+11 1031   20 1.5538e+11 1.5033e+11  3.25%   7.1  725s
 524135 210969 1.5033e+11 1008   21 1.5538e+11 1.5033e+11  3.25%   7.1  730s
 527022 211315 1.5033e+11 1014   22 1.5538e+11 1.5033e+11  3.25%   7.1  735s
H528456 211455                    1.553570e+11 1.5033e+11  3.24%   7.1  737s
 529582 211838 infeasible 1011      1.5536e+11 1.5033e+11  3.24%   7.1  740s
 532341 212342 1.5033e+11 1009   19 1.5536e+11 1.5033e+11  3.24%   7.1  745s
 535667 213019 infeasible 1031      1.5536e+11 1.5033e+11  3.24%   7.2  750s
 539132 214198 1.5033e+11 1022   21 1.5536e+11 1.5033e+11  3.24%   7.2  755s
 542171 214905 1.5033e+11 1009   19 1.5536e+11 1.5033e+11  3.24%   7.2  760s
 545802 215165 1.5033e+11 1018   18 1.5536e+11 1.5033e+11  3.24%   7.2  765s
 549311 215835 1.5033e+11 1015   21 1.5536e+11 1.5033e+11  3.24%   7.2  770s
 552867 216463 infeasible 1002      1.5536e+11 1.5033e+11  3.24%   7.2  775s
 555741 216888 infeasible 1031      1.5536e+11 1.5033e+11  3.24%   7.2  780s
H557924 217303                    1.551064e+11 1.5033e+11  3.08%   7.3  784s
 558349 217321 1.5033e+11 1034   18 1.5511e+11 1.5033e+11  3.08%   7.3  785s
 561599 217878 1.5033e+11 1000   21 1.5511e+11 1.5033e+11  3.08%   7.3  790s
 564580 218450 1.5033e+11 1022   19 1.5511e+11 1.5033e+11  3.08%   7.3  795s
 568167 218975 1.5033e+11  995   20 1.5511e+11 1.5033e+11  3.08%   7.3  800s
 570976 219730 1.5033e+11  994   21 1.5511e+11 1.5033e+11  3.08%   7.3  805s
 573755 220095 1.5033e+11 1004   19 1.5511e+11 1.5033e+11  3.08%   7.4  810s
 576556 220378 1.5033e+11 1011   21 1.5511e+11 1.5033e+11  3.08%   7.4  815s
 579403 220957 1.5033e+11 1006   21 1.5511e+11 1.5033e+11  3.08%   7.4  820s
 583405 221185 infeasible 1028      1.5511e+11 1.5033e+11  3.08%   7.4  825s
 586657 221443 1.5033e+11  997   21 1.5511e+11 1.5033e+11  3.08%   7.4  830s
 589341 221658 1.5033e+11 1016   20 1.5511e+11 1.5033e+11  3.08%   7.4  835s
 592202 222000 1.5033e+11  994   17 1.5511e+11 1.5033e+11  3.08%   7.5  840s
 595056 222191 1.5033e+11 1002   20 1.5511e+11 1.5033e+11  3.08%   7.5  845s
 597650 222390 1.5033e+11 1047   20 1.5511e+11 1.5033e+11  3.08%   7.5  850s
 600937 222847 infeasible  995      1.5511e+11 1.5033e+11  3.08%   7.5  855s
 603412 222910 1.5033e+11  990   18 1.5511e+11 1.5033e+11  3.08%   7.6  860s
 605853 223165 1.5033e+11  992   18 1.5511e+11 1.5033e+11  3.08%   7.6  865s
 608109 223538 1.5033e+11  997   20 1.5511e+11 1.5033e+11  3.08%   7.6  870s
 610833 223772 1.5033e+11 1006   19 1.5511e+11 1.5033e+11  3.08%   7.6  875s
 613583 224020 1.5033e+11  994   20 1.5511e+11 1.5033e+11  3.08%   7.7  880s
 616648 224486 infeasible 1008      1.5511e+11 1.5033e+11  3.08%   7.7  885s
 619686 225044 infeasible  996      1.5511e+11 1.5033e+11  3.08%   7.7  890s
 623027 225511 1.5033e+11 1023   17 1.5511e+11 1.5033e+11  3.08%   7.7  895s
 626830 225520 infeasible  996      1.5511e+11 1.5033e+11  3.08%   7.7  900s
 630504 226163 1.5033e+11  992   20 1.5511e+11 1.5033e+11  3.08%   7.7  905s
 633924 226750 1.5033e+11 1049   19 1.5511e+11 1.5033e+11  3.08%   7.7  910s
 637146 227366 infeasible 1002      1.5511e+11 1.5033e+11  3.08%   7.8  915s
 640008 227720 infeasible 1018      1.5511e+11 1.5033e+11  3.08%   7.8  920s
 642651 227970 1.5033e+11 1000   19 1.5511e+11 1.5033e+11  3.08%   7.8  925s
 645604 228250 1.5033e+11  983   19 1.5511e+11 1.5033e+11  3.08%   7.8  930s
 648383 228498 1.5033e+11  985   19 1.5511e+11 1.5033e+11  3.08%   7.8  935s
 651130 228882 1.5033e+11  995   19 1.5511e+11 1.5033e+11  3.08%   7.9  940s
 653770 229392 1.5033e+11  994   21 1.5511e+11 1.5033e+11  3.08%   7.9  945s
 656690 229642 1.5033e+11 1001   20 1.5511e+11 1.5033e+11  3.08%   7.9  950s
 659742 229846 1.5033e+11  993   18 1.5511e+11 1.5033e+11  3.08%   7.9  955s
 662231 230044 1.5033e+11 1011   21 1.5511e+11 1.5033e+11  3.08%   8.0  960s
 665342 230554 1.5033e+11 1010   20 1.5511e+11 1.5033e+11  3.08%   8.0  965s
 668057 230753 1.5033e+11  997   19 1.5511e+11 1.5033e+11  3.08%   8.0  970s
 670653 230918 1.5033e+11  986   19 1.5511e+11 1.5033e+11  3.08%   8.0  975s
 673230 231153 1.5033e+11  997   17 1.5511e+11 1.5033e+11  3.08%   8.0  980s
 675933 231607 infeasible 1000      1.5511e+11 1.5033e+11  3.08%   8.1  985s
 679150 232009 infeasible  990      1.5511e+11 1.5033e+11  3.08%   8.1  990s
 682169 232502 1.5033e+11 1013   20 1.5511e+11 1.5033e+11  3.08%   8.1  995s
H684704 232892                    1.549640e+11 1.5033e+11  2.99%   8.1  998s

Cutting planes:
  Gomory: 2
  Flow cover: 2

Explored 685387 nodes (5558187 simplex iterations) in 1000.00 seconds
Thread count was 1 (of 8 available processors)

Time limit reached
Best objective 1.549639539110e+11, best bound 1.503268572140e+11, gap 2.9924%
